53
3 83 58 86 
2 15 88 
2 31 91 
3 76 44 21 
3 29 113 2 
2 7 71 
3 118 117 98 
3 97 14 72 
3 110 120 11 
2 101 90 
2 66 96 
3 104 80 102 
3 6 19 78 
2 109 70 
2 68 73 
3 53 20 61 
3 9 94 82 
2 89 40 
2 93 42 
3 56 103 25 
2 57 36 
2 85 16 
3 87 50 17 
1 119 
3 23 111 81 
2 59 84 
2 48 28 
2 41 3 
2 67 108 
3 56 103 25 
3 63 95 69 
2 4 13 
2 26 112 
2 52 99 
2 119 16 
2 24 33 
3 100 115 39 
2 51 32 
1 64 
3 116 55 45 
2 107 74 
2 34 8 
2 65 92 
2 38 30 
2 77 22 
2 54 62 
3 43 37 10 
3 75 27 60 
2 5 1 
1 49 
1 35 
1 47 
2 18 12 
